c defined variables: 13 25 29 33 37 41 45 49 53 57 61 65 69 73 77 81 85 89 93 97 101 105 109 113 126 136 140 144 148 152 156 160 164 168 172 176 180 184 188 192 196 200 204 211 215 219 223 227 228 230 231 232 234 235 237 238 239 240 242 243 245 246 247 249 250 252 253 254 255 256 258 259 261 262 263 265 266 268 269 270 271 273 277 278 279 281 282 284 285 286 287 288 289 291 292 294 295 296 298 299 301 302 303 304 306 307 309 310 311 313 314 316 317 318 319 320 322 323 325 326 327 329 330 332 333 334 335 337 340 341 342 344 345 347 348 349 350 351 352 353 354 355 356 357 358 359 360 361 362 363 364 365 366 367 368 369 370 371 372 373 374 375 376 377 378 379 380 381 382 383 384 385 386 387 388 389 390 391 392 393 394 395 396 397 398 399 400 401 402 403 404 405 406 407 408 409 410 411 412 413 414 415 416 417 418 419 420 421 422 423 424 425 426 427 428 429 430 431 432 433 434 435 436 437 438 439 440 441 442 443 444 445 446 447 448 450 
p cnf 1624 2087
a 68 72 56 64 48 60 40 52 32 44 293 297 260 264 267 272 276 280 283 290 336 331 321 315 328 324 305 300 312 308 20 36 4 8 24 16 1 28 12 346 5 339 343 21 2 9 17 191 183 167 171 179 175 151 155 159 163 251 257 229 233 226 244 248 236 241 199 203 187 195 210 218 207 214 222 104 96 100 92 88 84 76 80 112 108 122 135 129 132 116 139 125 119 147 143 0
e 3 6 7 10 11 14 15 18 19 22 23 26 27 30 31 34 35 38 39 42 43 46 47 50 51 54 55 58 59 62 63 66 67 70 71 74 75 78 79 82 83 86 87 90 91 94 95 98 99 102 103 106 107 110 111 114 115 117 118 120 121 123 124 127 128 130 131 133 134 137 138 141 142 145 146 149 150 153 154 157 158 161 162 165 166 169 170 173 174 177 178 181 182 185 186 189 190 193 194 197 198 201 202 205 206 208 209 212 213 216 217 220 221 224 225 275 338 449 13 25 29 33 37 41 45 49 53 57 61 65 69 73 77 81 85 89 93 97 101 105 109 113 126 136 140 144 148 152 156 160 164 168 172 176 180 184 188 192 196 200 204 211 215 219 223 227 228 230 231 232 234 235 237 238 239 240 242 243 245 246 247 249 250 252 253 254 255 256 258 259 261 262 263 265 266 268 269 270 271 273 277 278 279 281 282 284 285 286 287 288 289 291 292 294 295 296 298 299 301 302 303 304 306 307 309 310 311 313 314 316 317 318 319 320 322 323 325 326 327 329 330 332 333 334 335 337 340 341 342 344 345 347 348 349 350 351 352 353 354 355 356 357 358 359 360 361 362 363 364 365 366 367 368 369 370 371 372 373 374 375 376 377 378 379 380 381 382 383 384 385 386 387 388 389 390 391 392 393 394 395 396 397 398 399 400 401 402 403 404 405 406 407 408 409 410 411 412 413 414 415 416 417 418 419 420 421 422 423 424 425 426 427 428 429 430 431 432 433 434 435 436 437 438 439 440 441 442 443 444 445 446 447 448 450 1403 1404 1405 1406 1407 1408 1409 1410 1411 1412 1413 1414 1415 1416 1417 1418 1419 1420 1421 1422 1423 1424 1425 1426 1427 1428 1429 1430 1431 1432 1433 1434 1435 1436 1437 1438 1439 1440 1441 1442 1443 1444 1445 1446 1447 1448 1449 1450 1451 1452 1453 1454 1455 1456 1457 1458 1459 1460 1461 1462 1463 1464 1465 1466 1467 1468 1469 1470 1471 1472 1473 1474 1475 1476 1477 1478 1479 1480 1481 1482 1483 1484 1485 1486 1487 1488 1489 1490 1491 1492 1493 1494 1495 1496 1497 1498 1499 1500 1501 1502 1503 1504 1505 1506 1507 1508 1509 1510 1511 1512 1513 1514 1515 1516 1517 1518 1519 1520 1521 1522 1523 1524 1525 1526 1527 1528 1529 1530 1531 1532 1533 1534 1535 1536 1537 1538 1539 1540 1541 1542 1543 1544 1545 1546 1547 1548 1549 1550 1551 1552 1553 1554 1555 1556 1557 1558 1559 1560 1561 1562 1563 1564 1565 1566 1567 1568 1569 1570 1571 1572 1573 1574 1575 1576 1577 1578 1579 1580 1581 1582 1583 1584 1585 1586 1587 1588 1589 1590 1591 1592 1593 1594 1595 1596 1597 1598 1599 1600 1601 1602 1603 1604 1605 1606 1607 1608 1609 1610 1611 1612 1613 1614 1615 1616 1617 1618 1619 1620 1621 1622 1623 1624 0
d 274 5 21 207 17 0
1404 -13 0
-1404 13 0
1405 -25 0
-1405 25 0
1406 -29 0
-1406 29 0
1407 -33 0
-1407 33 0
1408 -37 0
-1408 37 0
1409 -41 0
-1409 41 0
1410 -45 0
-1410 45 0
1411 -49 0
-1411 49 0
1412 -53 0
-1412 53 0
1413 -57 0
-1413 57 0
1414 -61 0
-1414 61 0
1415 -65 0
-1415 65 0
1416 -69 0
-1416 69 0
1417 -73 0
-1417 73 0
1418 -77 0
-1418 77 0
1419 -81 0
-1419 81 0
1420 -85 0
-1420 85 0
1421 -89 0
-1421 89 0
1422 -93 0
-1422 93 0
1423 -97 0
-1423 97 0
1424 -101 0
-1424 101 0
1425 -105 0
-1425 105 0
1426 -109 0
-1426 109 0
1427 -113 0
-1427 113 0
1428 -126 0
-1428 126 0
1429 -136 0
-1429 136 0
1430 -140 0
-1430 140 0
1431 -144 0
-1431 144 0
1432 -148 0
-1432 148 0
1433 -152 0
-1433 152 0
1434 -156 0
-1434 156 0
1411 -160 0
-1411 160 0
1435 -164 0
-1435 164 0
1436 -168 0
-1436 168 0
1437 -172 0
-1437 172 0
1438 -176 0
-1438 176 0
1439 -180 0
-1439 180 0
1440 -184 0
-1440 184 0
1441 -188 0
-1441 188 0
1442 -192 0
-1442 192 0
1445 -196 0
-1445 196 0
1446 -200 0
-1446 200 0
1447 -204 0
-1447 204 0
1423 -211 0
-1423 211 0
1448 -215 0
-1448 215 0
1449 -219 0
-1449 219 0
1450 -223 0
-1450 223 0
1451 -227 0
-1451 227 0
1452 -228 0
-1452 228 0
1453 -230 0
-1453 230 0
1454 -231 0
-1454 231 0
-1455 -232 0
1455 232 0
1456 -234 0
-1456 234 0
1457 -235 0
-1457 235 0
1458 -237 0
-1458 237 0
1459 -238 0
-1459 238 0
-1460 -239 0
1460 239 0
-1461 -240 0
1461 240 0
1462 -242 0
-1462 242 0
1463 -243 0
-1463 243 0
1464 -245 0
-1464 245 0
1465 -246 0
-1465 246 0
-1466 -247 0
1466 247 0
1467 -249 0
-1467 249 0
1468 -250 0
-1468 250 0
1469 -252 0
-1469 252 0
1470 -253 0
-1470 253 0
-1471 -254 0
1471 254 0
-1472 -255 0
1472 255 0
-1474 -256 0
1474 256 0
1475 -258 0
-1475 258 0
1476 -259 0
-1476 259 0
1477 -261 0
-1477 261 0
1478 -262 0
-1478 262 0
-1479 -263 0
1479 263 0
1480 -265 0
-1480 265 0
1481 -266 0
-1481 266 0
1482 -268 0
-1482 268 0
1483 -269 0
-1483 269 0
-1484 -270 0
1484 270 0
-1485 -271 0
1485 271 0
1486 -273 0
-1486 273 0
1487 -277 0
-1487 277 0
1488 -278 0
-1488 278 0
-1489 -279 0
1489 279 0
1490 -281 0
-1490 281 0
1491 -282 0
-1491 282 0
1492 -284 0
-1492 284 0
1493 -285 0
-1493 285 0
-1494 -286 0
1494 286 0
-1495 -287 0
1495 287 0
-1496 -288 0
1496 288 0
-1497 -289 0
1497 289 0
1498 -291 0
-1498 291 0
1499 -292 0
-1499 292 0
1500 -294 0
-1500 294 0
1501 -295 0
-1501 295 0
-1502 -296 0
1502 296 0
1503 -298 0
-1503 298 0
1504 -299 0
-1504 299 0
1505 -301 0
-1505 301 0
1506 -302 0
-1506 302 0
-1507 -303 0
1507 303 0
-1508 -304 0
1508 304 0
1509 -306 0
-1509 306 0
1510 -307 0
-1510 307 0
1511 -309 0
-1511 309 0
1512 -310 0
-1512 310 0
-1513 -311 0
1513 311 0
1514 -313 0
-1514 313 0
1515 -314 0
-1515 314 0
1516 -316 0
-1516 316 0
1517 -317 0
-1517 317 0
-1518 -318 0
1518 318 0
-1519 -319 0
1519 319 0
-1521 -320 0
1521 320 0
1522 -322 0
-1522 322 0
1523 -323 0
-1523 323 0
1524 -325 0
-1524 325 0
1525 -326 0
-1525 326 0
-1526 -327 0
1526 327 0
1527 -329 0
-1527 329 0
1528 -330 0
-1528 330 0
1529 -332 0
-1529 332 0
1530 -333 0
-1530 333 0
-1531 -334 0
1531 334 0
-1532 -335 0
1532 335 0
1533 -337 0
-1533 337 0
1534 -340 0
-1534 340 0
1535 -341 0
-1535 341 0
-1536 -342 0
1536 342 0
1537 -344 0
-1537 344 0
1538 -345 0
-1538 345 0
1539 -347 0
-1539 347 0
1540 -348 0
-1540 348 0
-1541 -349 0
1541 349 0
-1542 -350 0
1542 350 0
-1543 -351 0
1543 351 0
-1544 -352 0
1544 352 0
-1545 -353 0
1545 353 0
1546 -354 0
-1546 354 0
1547 -355 0
-1547 355 0
1548 -356 0
-1548 356 0
1549 -357 0
-1549 357 0
-1550 -358 0
1550 358 0
1551 -359 0
-1551 359 0
1552 -360 0
-1552 360 0
1553 -361 0
-1553 361 0
1554 -362 0
-1554 362 0
-1555 -363 0
1555 363 0
-1556 -364 0
1556 364 0
1557 -365 0
-1557 365 0
1558 -366 0
-1558 366 0
1559 -367 0
-1559 367 0
1560 -368 0
-1560 368 0
-1561 -369 0
1561 369 0
1562 -370 0
-1562 370 0
1563 -371 0
-1563 371 0
1564 -372 0
-1564 372 0
1565 -373 0
-1565 373 0
-1566 -374 0
1566 374 0
-1567 -375 0
1567 375 0
-1568 -376 0
1568 376 0
1569 -377 0
-1569 377 0
1570 -378 0
-1570 378 0
1571 -379 0
-1571 379 0
1572 -380 0
-1572 380 0
-1573 -381 0
1573 381 0
1574 -382 0
-1574 382 0
1575 -383 0
-1575 383 0
1576 -384 0
-1576 384 0
1577 -385 0
-1577 385 0
-1578 -386 0
1578 386 0
-1579 -387 0
1579 387 0
1580 -388 0
-1580 388 0
1581 -389 0
-1581 389 0
1582 -390 0
-1582 390 0
1583 -391 0
-1583 391 0
-1584 -392 0
1584 392 0
1585 -393 0
-1585 393 0
1586 -394 0
-1586 394 0
1587 -395 0
-1587 395 0
1588 -396 0
-1588 396 0
-1589 -397 0
1589 397 0
-1590 -398 0
1590 398 0
-1591 -399 0
1591 399 0
-1592 -400 0
1592 400 0
1498 -401 0
-1498 401 0
1593 -402 0
-1593 402 0
1500 -403 0
-1500 403 0
1594 -404 0
-1594 404 0
-1595 -405 0
1595 405 0
1503 -406 0
-1503 406 0
1596 -407 0
-1596 407 0
1505 -408 0
-1505 408 0
1597 -409 0
-1597 409 0
-1598 -410 0
1598 410 0
-1599 -411 0
1599 411 0
1509 -412 0
-1509 412 0
1600 -413 0
-1600 413 0
1511 -414 0
-1511 414 0
1601 -415 0
-1601 415 0
-1602 -416 0
1602 416 0
1514 -417 0
-1514 417 0
1603 -418 0
-1603 418 0
1516 -419 0
-1516 419 0
1604 -420 0
-1604 420 0
-1605 -421 0
1605 421 0
-1606 -422 0
1606 422 0
-1607 -423 0
1607 423 0
1522 -424 0
-1522 424 0
1608 -425 0
-1608 425 0
1524 -426 0
-1524 426 0
1609 -427 0
-1609 427 0
-1610 -428 0
1610 428 0
1527 -429 0
-1527 429 0
1611 -430 0
-1611 430 0
1529 -431 0
-1529 431 0
1612 -432 0
-1612 432 0
-1613 -433 0
1613 433 0
-1614 -434 0
1614 434 0
1533 -435 0
-1533 435 0
1615 -436 0
-1615 436 0
1534 -437 0
-1534 437 0
1616 -438 0
-1616 438 0
-1617 -439 0
1617 439 0
1537 -440 0
-1537 440 0
1618 -441 0
-1618 441 0
1539 -442 0
-1539 442 0
1619 -443 0
-1619 443 0
-1620 -444 0
1620 444 0
-1621 -445 0
1621 445 0
-1622 -446 0
1622 446 0
-1623 -447 0
1623 447 0
-1624 -448 0
1624 448 0
1403 -450 0
-1403 450 0
450 0
-450 225 449 0
-225 221 -224 0
-221 217 -220 0
-217 213 -216 0
-213 209 -212 0
-209 206 -208 0
-206 202 -205 0
-202 198 -201 0
-198 194 -197 0
-194 190 -193 0
-190 186 -189 0
-186 182 -185 0
-182 178 -181 0
-178 174 -177 0
-174 170 -173 0
-170 166 -169 0
-166 162 -165 0
-162 158 -161 0
-158 154 -157 0
-154 150 -153 0
-150 146 -149 0
-146 142 -145 0
-142 138 -141 0
-138 134 -137 0
-134 131 -133 0
-131 128 -130 0
-128 124 -127 0
-124 121 -123 0
-121 118 -120 0
-118 115 -117 0
-115 111 -114 0
-111 107 -110 0
-107 103 -106 0
-103 99 -102 0
-99 95 -98 0
-95 91 -94 0
-91 87 -90 0
-87 83 -86 0
-83 79 -82 0
-79 75 -78 0
-75 71 -74 0
-71 67 -70 0
-67 63 -66 0
-63 59 -62 0
-59 55 -58 0
-55 51 -54 0
-51 47 -50 0
-47 43 -46 0
-43 39 -42 0
-39 35 -38 0
-35 31 -34 0
-31 27 -30 0
-27 23 -26 0
-23 19 -22 0
-19 15 -18 0
-15 11 -14 0
-11 7 -10 0
-7 -3 -6 0
1 -2 3 0
-1 2 3 0
4 -5 6 0
-4 5 6 0
8 -9 10 0
-8 9 10 0
12 13 14 0
-12 -13 14 0
-4 -8 13 0
-13 4 0
-13 8 0
16 -17 18 0
-16 17 18 0
20 -21 22 0
-20 21 22 0
24 25 26 0
-24 -25 26 0
-16 -20 25 0
-25 16 0
-25 20 0
28 29 30 0
-28 -29 30 0
-12 -24 29 0
-29 12 0
-29 24 0
32 33 34 0
-32 -33 34 0
-5 -8 33 0
-33 5 0
-33 8 0
36 37 38 0
-36 -37 38 0
-32 -24 37 0
-37 32 0
-37 24 0
40 41 42 0
-40 -41 42 0
-4 -9 41 0
-41 4 0
-41 9 0
44 45 46 0
-44 -45 46 0
-40 -24 45 0
-45 40 0
-45 24 0
48 49 50 0
-48 -49 50 0
-5 -9 49 0
-49 5 0
-49 9 0
52 53 54 0
-52 -53 54 0
-48 -24 53 0
-53 48 0
-53 24 0
56 57 58 0
-56 -57 58 0
-17 -20 57 0
-57 17 0
-57 20 0
60 61 62 0
-60 -61 62 0
-12 -56 61 0
-61 12 0
-61 56 0
64 65 66 0
-64 -65 66 0
-32 -56 65 0
-65 32 0
-65 56 0
68 69 70 0
-68 -69 70 0
-40 -56 69 0
-69 40 0
-69 56 0
72 73 74 0
-72 -73 74 0
-48 -56 73 0
-73 48 0
-73 56 0
76 77 78 0
-76 -77 78 0
-16 -21 77 0
-77 16 0
-77 21 0
80 81 82 0
-80 -81 82 0
-12 -76 81 0
-81 12 0
-81 76 0
84 85 86 0
-84 -85 86 0
-32 -76 85 0
-85 32 0
-85 76 0
88 89 90 0
-88 -89 90 0
-40 -76 89 0
-89 40 0
-89 76 0
92 93 94 0
-92 -93 94 0
-48 -76 93 0
-93 48 0
-93 76 0
96 97 98 0
-96 -97 98 0
-17 -21 97 0
-97 17 0
-97 21 0
100 101 102 0
-100 -101 102 0
-12 -96 101 0
-101 12 0
-101 96 0
104 105 106 0
-104 -105 106 0
-32 -96 105 0
-105 32 0
-105 96 0
108 109 110 0
-108 -109 110 0
-40 -96 109 0
-109 40 0
-109 96 0
112 113 114 0
-112 -113 114 0
-48 -96 113 0
-113 48 0
-113 96 0
116 -2 117 0
-116 2 117 0
119 -5 120 0
-119 5 120 0
122 -9 123 0
-122 9 123 0
125 126 127 0
-125 -126 127 0
-119 -122 126 0
-126 119 0
-126 122 0
129 -17 130 0
-129 17 130 0
132 -21 133 0
-132 21 133 0
135 136 137 0
-135 -136 137 0
-129 -132 136 0
-136 129 0
-136 132 0
139 140 141 0
-139 -140 141 0
-125 -135 140 0
-140 125 0
-140 135 0
143 144 145 0
-143 -144 145 0
-5 -122 144 0
-144 5 0
-144 122 0
147 148 149 0
-147 -148 149 0
-143 -135 148 0
-148 143 0
-148 135 0
151 152 153 0
-151 -152 153 0
-119 -9 152 0
-152 119 0
-152 9 0
155 156 157 0
-155 -156 157 0
-151 -135 156 0
-156 151 0
-156 135 0
159 160 161 0
-159 -160 161 0
-5 -9 160 0
-160 5 0
-160 9 0
163 164 165 0
-163 -164 165 0
-159 -135 164 0
-164 159 0
-164 135 0
167 168 169 0
-167 -168 169 0
-17 -132 168 0
-168 17 0
-168 132 0
171 172 173 0
-171 -172 173 0
-125 -167 172 0
-172 125 0
-172 167 0
175 176 177 0
-175 -176 177 0
-143 -167 176 0
-176 143 0
-176 167 0
179 180 181 0
-179 -180 181 0
-151 -167 180 0
-180 151 0
-180 167 0
183 184 185 0
-183 -184 185 0
-159 -167 184 0
-184 159 0
-184 167 0
187 188 189 0
-187 -188 189 0
-129 -21 188 0
-188 129 0
-188 21 0
191 192 193 0
-191 -192 193 0
-125 -187 192 0
-192 125 0
-192 187 0
195 -196 197 0
-195 196 197 0
-196 -143 187 0
-196 143 -187 0
143 187 196 0
-143 -187 196 0
199 200 201 0
-199 -200 201 0
-151 -187 200 0
-200 151 0
-200 187 0
203 204 205 0
-203 -204 205 0
-159 -187 204 0
-204 159 0
-204 187 0
207 122 208 0
-207 -122 208 0
210 211 212 0
-210 -211 212 0
-17 -21 211 0
-211 17 0
-211 21 0
214 215 216 0
-214 -215 216 0
-143 -210 215 0
-215 143 0
-215 210 0
218 219 220 0
-218 -219 220 0
-151 -210 219 0
-219 151 0
-219 210 0
222 223 224 0
-222 -223 224 0
-159 -210 223 0
-223 159 0
-223 210 0
-449 -353 448 0
-449 353 -448 0
-353 289 352 0
-289 256 288 0
-256 240 255 0
-240 232 239 0
-232 228 231 0
-228 227 0
-228 139 0
-227 116 0
-227 226 0
-231 230 0
-231 147 0
-230 116 0
-230 229 0
-239 235 238 0
-235 234 0
-235 155 0
-234 116 0
-234 233 0
-238 237 0
-238 163 0
-237 116 0
-237 236 0
-255 247 254 0
-247 243 246 0
-243 242 0
-243 171 0
-242 116 0
-242 241 0
-246 245 0
-246 175 0
-245 116 0
-245 244 0
-254 250 253 0
-250 249 0
-250 179 0
-249 116 0
-249 248 0
-253 252 0
-253 183 0
-252 116 0
-252 251 0
-288 271 287 0
-271 263 270 0
-263 259 262 0
-259 258 0
-259 191 0
-258 116 0
-258 257 0
-262 261 0
-262 195 0
-261 116 0
-261 260 0
-270 266 269 0
-266 265 0
-266 199 0
-265 116 0
-265 264 0
-269 268 0
-269 203 0
-268 116 0
-268 267 0
-287 279 286 0
-279 275 278 0
-275 273 0
-275 274 0
-273 116 0
-273 272 0
-278 277 0
-278 214 0
-277 116 0
-277 276 0
-286 282 285 0
-282 281 0
-282 218 0
-281 116 0
-281 280 0
-285 284 0
-285 222 0
-284 116 0
-284 283 0
-352 320 351 0
-320 304 319 0
-304 296 303 0
-296 292 295 0
-292 291 0
-292 139 0
-291 2 0
-291 290 0
-295 294 0
-295 147 0
-294 2 0
-294 293 0
-303 299 302 0
-299 298 0
-299 155 0
-298 2 0
-298 297 0
-302 301 0
-302 163 0
-301 2 0
-301 300 0
-319 311 318 0
-311 307 310 0
-307 306 0
-307 171 0
-306 2 0
-306 305 0
-310 309 0
-310 175 0
-309 2 0
-309 308 0
-318 314 317 0
-314 313 0
-314 179 0
-313 2 0
-313 312 0
-317 316 0
-317 183 0
-316 2 0
-316 315 0
-351 335 350 0
-335 327 334 0
-327 323 326 0
-323 322 0
-323 191 0
-322 2 0
-322 321 0
-326 325 0
-326 195 0
-325 2 0
-325 324 0
-334 330 333 0
-330 329 0
-330 199 0
-329 2 0
-329 328 0
-333 332 0
-333 203 0
-332 2 0
-332 331 0
-350 342 349 0
-342 338 341 0
-338 337 0
-338 274 0
-337 2 0
-337 336 0
-341 340 0
-341 214 0
-340 2 0
-340 339 0
-349 345 348 0
-345 344 0
-345 218 0
-344 2 0
-344 343 0
-348 347 0
-348 222 0
-347 2 0
-347 346 0
-448 400 447 0
-400 376 399 0
-376 364 375 0
-364 358 363 0
-358 355 357 0
-355 354 0
-355 28 0
-354 1 0
-354 226 0
-357 356 0
-357 36 0
-356 1 0
-356 229 0
-363 360 362 0
-360 359 0
-360 44 0
-359 1 0
-359 233 0
-362 361 0
-362 52 0
-361 1 0
-361 236 0
-375 369 374 0
-369 366 368 0
-366 365 0
-366 60 0
-365 1 0
-365 241 0
-368 367 0
-368 64 0
-367 1 0
-367 244 0
-374 371 373 0
-371 370 0
-371 68 0
-370 1 0
-370 248 0
-373 372 0
-373 72 0
-372 1 0
-372 251 0
-399 387 398 0
-387 381 386 0
-381 378 380 0
-378 377 0
-378 80 0
-377 1 0
-377 257 0
-380 379 0
-380 84 0
-379 1 0
-379 260 0
-386 383 385 0
-383 382 0
-383 88 0
-382 1 0
-382 264 0
-385 384 0
-385 92 0
-384 1 0
-384 267 0
-398 392 397 0
-392 389 391 0
-389 388 0
-389 100 0
-388 1 0
-388 272 0
-391 390 0
-391 104 0
-390 1 0
-390 276 0
-397 394 396 0
-394 393 0
-394 108 0
-393 1 0
-393 280 0
-396 395 0
-396 112 0
-395 1 0
-395 283 0
-447 423 446 0
-423 411 422 0
-411 405 410 0
-405 402 404 0
-402 401 0
-402 28 0
-401 2 0
-401 290 0
-404 403 0
-404 36 0
-403 2 0
-403 293 0
-410 407 409 0
-407 406 0
-407 44 0
-406 2 0
-406 297 0
-409 408 0
-409 52 0
-408 2 0
-408 300 0
-422 416 421 0
-416 413 415 0
-413 412 0
-413 60 0
-412 2 0
-412 305 0
-415 414 0
-415 64 0
-414 2 0
-414 308 0
-421 418 420 0
-418 417 0
-418 68 0
-417 2 0
-417 312 0
-420 419 0
-420 72 0
-419 2 0
-419 315 0
-446 434 445 0
-434 428 433 0
-428 425 427 0
-425 424 0
-425 80 0
-424 2 0
-424 321 0
-427 426 0
-427 84 0
-426 2 0
-426 324 0
-433 430 432 0
-430 429 0
-430 88 0
-429 2 0
-429 328 0
-432 431 0
-432 92 0
-431 2 0
-431 331 0
-445 439 444 0
-439 436 438 0
-436 435 0
-436 100 0
-435 2 0
-435 336 0
-438 437 0
-438 104 0
-437 2 0
-437 339 0
-444 441 443 0
-441 440 0
-441 108 0
-440 2 0
-440 343 0
-443 442 0
-443 112 0
-442 2 0
-442 346 0
-289 352 353 0
289 -352 353 0
-289 -352 353 0
-256 288 289 0
256 -288 289 0
-256 -288 289 0
-240 255 256 0
240 -255 256 0
-240 -255 256 0
-232 239 240 0
232 -239 240 0
-232 -239 240 0
-228 231 232 0
228 -231 232 0
-228 -231 232 0
-227 -139 228 0
-116 -226 227 0
-230 -147 231 0
-116 -229 230 0
-235 238 239 0
235 -238 239 0
-235 -238 239 0
-234 -155 235 0
-116 -233 234 0
-237 -163 238 0
-116 -236 237 0
-247 254 255 0
247 -254 255 0
-247 -254 255 0
-243 246 247 0
243 -246 247 0
-243 -246 247 0
-242 -171 243 0
-116 -241 242 0
-245 -175 246 0
-116 -244 245 0
-250 253 254 0
250 -253 254 0
-250 -253 254 0
-249 -179 250 0
-116 -248 249 0
-252 -183 253 0
-116 -251 252 0
-271 287 288 0
271 -287 288 0
-271 -287 288 0
-263 270 271 0
263 -270 271 0
-263 -270 271 0
-259 262 263 0
259 -262 263 0
-259 -262 263 0
-258 -191 259 0
-116 -257 258 0
-261 -195 262 0
-116 -260 261 0
-266 269 270 0
266 -269 270 0
-266 -269 270 0
-265 -199 266 0
-116 -264 265 0
-268 -203 269 0
-116 -267 268 0
-279 286 287 0
279 -286 287 0
-279 -286 287 0
-275 278 279 0
275 -278 279 0
-275 -278 279 0
-273 -274 275 0
-116 -272 273 0
-277 -214 278 0
-116 -276 277 0
-282 285 286 0
282 -285 286 0
-282 -285 286 0
-281 -218 282 0
-116 -280 281 0
-284 -222 285 0
-116 -283 284 0
-320 351 352 0
320 -351 352 0
-320 -351 352 0
-304 319 320 0
304 -319 320 0
-304 -319 320 0
-296 303 304 0
296 -303 304 0
-296 -303 304 0
-292 295 296 0
292 -295 296 0
-292 -295 296 0
-291 -139 292 0
-2 -290 291 0
-294 -147 295 0
-2 -293 294 0
-299 302 303 0
299 -302 303 0
-299 -302 303 0
-298 -155 299 0
-2 -297 298 0
-301 -163 302 0
-2 -300 301 0
-311 318 319 0
311 -318 319 0
-311 -318 319 0
-307 310 311 0
307 -310 311 0
-307 -310 311 0
-306 -171 307 0
-2 -305 306 0
-309 -175 310 0
-2 -308 309 0
-314 317 318 0
314 -317 318 0
-314 -317 318 0
-313 -179 314 0
-2 -312 313 0
-316 -183 317 0
-2 -315 316 0
-335 350 351 0
335 -350 351 0
-335 -350 351 0
-327 334 335 0
327 -334 335 0
-327 -334 335 0
-323 326 327 0
323 -326 327 0
-323 -326 327 0
-322 -191 323 0
-2 -321 322 0
-325 -195 326 0
-2 -324 325 0
-330 333 334 0
330 -333 334 0
-330 -333 334 0
-329 -199 330 0
-2 -328 329 0
-332 -203 333 0
-2 -331 332 0
-342 349 350 0
342 -349 350 0
-342 -349 350 0
-338 341 342 0
338 -341 342 0
-338 -341 342 0
-337 -274 338 0
-2 -336 337 0
-340 -214 341 0
-2 -339 340 0
-345 348 349 0
345 -348 349 0
-345 -348 349 0
-344 -218 345 0
-2 -343 344 0
-347 -222 348 0
-2 -346 347 0
-400 447 448 0
400 -447 448 0
-400 -447 448 0
-376 399 400 0
376 -399 400 0
-376 -399 400 0
-364 375 376 0
364 -375 376 0
-364 -375 376 0
-358 363 364 0
358 -363 364 0
-358 -363 364 0
-355 357 358 0
355 -357 358 0
-355 -357 358 0
-354 -28 355 0
-1 -226 354 0
-356 -36 357 0
-1 -229 356 0
-360 362 363 0
360 -362 363 0
-360 -362 363 0
-359 -44 360 0
-1 -233 359 0
-361 -52 362 0
-1 -236 361 0
-369 374 375 0
369 -374 375 0
-369 -374 375 0
-366 368 369 0
366 -368 369 0
-366 -368 369 0
-365 -60 366 0
-1 -241 365 0
-367 -64 368 0
-1 -244 367 0
-371 373 374 0
371 -373 374 0
-371 -373 374 0
-370 -68 371 0
-1 -248 370 0
-372 -72 373 0
-1 -251 372 0
-387 398 399 0
387 -398 399 0
-387 -398 399 0
-381 386 387 0
381 -386 387 0
-381 -386 387 0
-378 380 381 0
378 -380 381 0
-378 -380 381 0
-377 -80 378 0
-1 -257 377 0
-379 -84 380 0
-1 -260 379 0
-383 385 386 0
383 -385 386 0
-383 -385 386 0
-382 -88 383 0
-1 -264 382 0
-384 -92 385 0
-1 -267 384 0
-392 397 398 0
392 -397 398 0
-392 -397 398 0
-389 391 392 0
389 -391 392 0
-389 -391 392 0
-388 -100 389 0
-1 -272 388 0
-390 -104 391 0
-1 -276 390 0
-394 396 397 0
394 -396 397 0
-394 -396 397 0
-393 -108 394 0
-1 -280 393 0
-395 -112 396 0
-1 -283 395 0
-423 446 447 0
423 -446 447 0
-423 -446 447 0
-411 422 423 0
411 -422 423 0
-411 -422 423 0
-405 410 411 0
405 -410 411 0
-405 -410 411 0
-402 404 405 0
402 -404 405 0
-402 -404 405 0
-401 -28 402 0
-2 -290 401 0
-403 -36 404 0
-2 -293 403 0
-407 409 410 0
407 -409 410 0
-407 -409 410 0
-406 -44 407 0
-2 -297 406 0
-408 -52 409 0
-2 -300 408 0
-416 421 422 0
416 -421 422 0
-416 -421 422 0
-413 415 416 0
413 -415 416 0
-413 -415 416 0
-412 -60 413 0
-2 -305 412 0
-414 -64 415 0
-2 -308 414 0
-418 420 421 0
418 -420 421 0
-418 -420 421 0
-417 -68 418 0
-2 -312 417 0
-419 -72 420 0
-2 -315 419 0
-434 445 446 0
434 -445 446 0
-434 -445 446 0
-428 433 434 0
428 -433 434 0
-428 -433 434 0
-425 427 428 0
425 -427 428 0
-425 -427 428 0
-424 -80 425 0
-2 -321 424 0
-426 -84 427 0
-2 -324 426 0
-430 432 433 0
430 -432 433 0
-430 -432 433 0
-429 -88 430 0
-2 -328 429 0
-431 -92 432 0
-2 -331 431 0
-439 444 445 0
439 -444 445 0
-439 -444 445 0
-436 438 439 0
436 -438 439 0
-436 -438 439 0
-435 -100 436 0
-2 -336 435 0
-437 -104 438 0
-2 -339 437 0
-441 443 444 0
441 -443 444 0
-441 -443 444 0
-440 -108 441 0
-2 -343 440 0
-442 -112 443 0
-2 -346 442 0
1403 0
4 -1404 0
8 -1404 0
-4 -8 1404 0
20 -1405 0
16 -1405 0
-20 -16 1405 0
24 -1406 0
12 -1406 0
-24 -12 1406 0
8 -1407 0
5 -1407 0
-8 -5 1407 0
32 -1408 0
24 -1408 0
-32 -24 1408 0
4 -1409 0
9 -1409 0
-4 -9 1409 0
40 -1410 0
24 -1410 0
-40 -24 1410 0
5 -1411 0
9 -1411 0
-5 -9 1411 0
48 -1412 0
24 -1412 0
-48 -24 1412 0
20 -1413 0
17 -1413 0
-20 -17 1413 0
56 -1414 0
12 -1414 0
-56 -12 1414 0
56 -1415 0
32 -1415 0
-56 -32 1415 0
56 -1416 0
40 -1416 0
-56 -40 1416 0
56 -1417 0
48 -1417 0
-56 -48 1417 0
16 -1418 0
21 -1418 0
-16 -21 1418 0
12 -1419 0
76 -1419 0
-12 -76 1419 0
32 -1420 0
76 -1420 0
-32 -76 1420 0
40 -1421 0
76 -1421 0
-40 -76 1421 0
48 -1422 0
76 -1422 0
-48 -76 1422 0
21 -1423 0
17 -1423 0
-21 -17 1423 0
12 -1424 0
96 -1424 0
-12 -96 1424 0
32 -1425 0
96 -1425 0
-32 -96 1425 0
40 -1426 0
96 -1426 0
-40 -96 1426 0
48 -1427 0
96 -1427 0
-48 -96 1427 0
122 -1428 0
119 -1428 0
-122 -119 1428 0
129 -1429 0
132 -1429 0
-129 -132 1429 0
135 -1430 0
125 -1430 0
-135 -125 1430 0
5 -1431 0
122 -1431 0
-5 -122 1431 0
135 -1432 0
143 -1432 0
-135 -143 1432 0
9 -1433 0
119 -1433 0
-9 -119 1433 0
151 -1434 0
135 -1434 0
-151 -135 1434 0
159 -1435 0
135 -1435 0
-159 -135 1435 0
17 -1436 0
132 -1436 0
-17 -132 1436 0
167 -1437 0
125 -1437 0
-167 -125 1437 0
167 -1438 0
143 -1438 0
-167 -143 1438 0
167 -1439 0
151 -1439 0
-167 -151 1439 0
167 -1440 0
159 -1440 0
-167 -159 1440 0
21 -1441 0
129 -1441 0
-21 -129 1441 0
187 -1442 0
125 -1442 0
-187 -125 1442 0
187 -1443 0
-143 -1443 0
-187 143 1443 0
-187 -1444 0
143 -1444 0
187 -143 1444 0
-1443 -1445 0
-1444 -1445 0
1443 1444 1445 0
151 -1446 0
187 -1446 0
-151 -187 1446 0
159 -1447 0
187 -1447 0
-159 -187 1447 0
210 -1448 0
143 -1448 0
-210 -143 1448 0
151 -1449 0
210 -1449 0
-151 -210 1449 0
159 -1450 0
210 -1450 0
-159 -210 1450 0
226 -1451 0
116 -1451 0
-226 -116 1451 0
139 -1452 0
227 -1452 0
-139 -227 1452 0
229 -1453 0
116 -1453 0
-229 -116 1453 0
147 -1454 0
230 -1454 0
-147 -230 1454 0
-228 -1455 0
-231 -1455 0
228 231 1455 0
233 -1456 0
116 -1456 0
-233 -116 1456 0
155 -1457 0
234 -1457 0
-155 -234 1457 0
236 -1458 0
116 -1458 0
-236 -116 1458 0
163 -1459 0
237 -1459 0
-163 -237 1459 0
-235 -1460 0
-238 -1460 0
235 238 1460 0
-232 -1461 0
-239 -1461 0
232 239 1461 0
241 -1462 0
116 -1462 0
-241 -116 1462 0
171 -1463 0
242 -1463 0
-171 -242 1463 0
244 -1464 0
116 -1464 0
-244 -116 1464 0
175 -1465 0
245 -1465 0
-175 -245 1465 0
-243 -1466 0
-246 -1466 0
243 246 1466 0
248 -1467 0
116 -1467 0
-248 -116 1467 0
179 -1468 0
249 -1468 0
-179 -249 1468 0
251 -1469 0
116 -1469 0
-251 -116 1469 0
183 -1470 0
252 -1470 0
-183 -252 1470 0
-250 -1471 0
-253 -1471 0
250 253 1471 0
-247 -1472 0
1471 -1472 0
247 -1471 1472 0
-240 -1473 0
-247 -1473 0
240 247 1473 0
-254 -1474 0
1473 -1474 0
254 -1473 1474 0
257 -1475 0
116 -1475 0
-257 -116 1475 0
191 -1476 0
258 -1476 0
-191 -258 1476 0
260 -1477 0
116 -1477 0
-260 -116 1477 0
195 -1478 0
261 -1478 0
-195 -261 1478 0
-259 -1479 0
-262 -1479 0
259 262 1479 0
264 -1480 0
116 -1480 0
-264 -116 1480 0
199 -1481 0
265 -1481 0
-199 -265 1481 0
267 -1482 0
116 -1482 0
-267 -116 1482 0
203 -1483 0
268 -1483 0
-203 -268 1483 0
-266 -1484 0
-269 -1484 0
266 269 1484 0
-263 -1485 0
-270 -1485 0
263 270 1485 0
272 -1486 0
116 -1486 0
-272 -116 1486 0
276 -1487 0
116 -1487 0
-276 -116 1487 0
214 -1488 0
277 -1488 0
-214 -277 1488 0
-275 -1489 0
-278 -1489 0
275 278 1489 0
280 -1490 0
116 -1490 0
-280 -116 1490 0
218 -1491 0
281 -1491 0
-218 -281 1491 0
283 -1492 0
116 -1492 0
-283 -116 1492 0
222 -1493 0
284 -1493 0
-222 -284 1493 0
-282 -1494 0
-285 -1494 0
282 285 1494 0
-279 -1495 0
-286 -1495 0
279 286 1495 0
-271 -1496 0
-287 -1496 0
271 287 1496 0
-256 -1497 0
1496 -1497 0
256 -1496 1497 0
290 -1498 0
2 -1498 0
-290 -2 1498 0
139 -1499 0
291 -1499 0
-139 -291 1499 0
293 -1500 0
2 -1500 0
-293 -2 1500 0
147 -1501 0
294 -1501 0
-147 -294 1501 0
-292 -1502 0
-295 -1502 0
292 295 1502 0
297 -1503 0
2 -1503 0
-297 -2 1503 0
155 -1504 0
298 -1504 0
-155 -298 1504 0
300 -1505 0
2 -1505 0
-300 -2 1505 0
163 -1506 0
301 -1506 0
-163 -301 1506 0
-299 -1507 0
-302 -1507 0
299 302 1507 0
-296 -1508 0
-303 -1508 0
296 303 1508 0
305 -1509 0
2 -1509 0
-305 -2 1509 0
171 -1510 0
306 -1510 0
-171 -306 1510 0
308 -1511 0
2 -1511 0
-308 -2 1511 0
175 -1512 0
309 -1512 0
-175 -309 1512 0
-307 -1513 0
-310 -1513 0
307 310 1513 0
312 -1514 0
2 -1514 0
-312 -2 1514 0
179 -1515 0
313 -1515 0
-179 -313 1515 0
315 -1516 0
2 -1516 0
-315 -2 1516 0
183 -1517 0
316 -1517 0
-183 -316 1517 0
-314 -1518 0
-317 -1518 0
314 317 1518 0
-311 -1519 0
1518 -1519 0
311 -1518 1519 0
-304 -1520 0
-311 -1520 0
304 311 1520 0
-318 -1521 0
1520 -1521 0
318 -1520 1521 0
321 -1522 0
2 -1522 0
-321 -2 1522 0
191 -1523 0
322 -1523 0
-191 -322 1523 0
324 -1524 0
2 -1524 0
-324 -2 1524 0
195 -1525 0
325 -1525 0
-195 -325 1525 0
-323 -1526 0
-326 -1526 0
323 326 1526 0
328 -1527 0
2 -1527 0
-328 -2 1527 0
199 -1528 0
329 -1528 0
-199 -329 1528 0
331 -1529 0
2 -1529 0
-331 -2 1529 0
203 -1530 0
332 -1530 0
-203 -332 1530 0
-330 -1531 0
-333 -1531 0
330 333 1531 0
-327 -1532 0
-334 -1532 0
327 334 1532 0
336 -1533 0
2 -1533 0
-336 -2 1533 0
339 -1534 0
2 -1534 0
-339 -2 1534 0
214 -1535 0
340 -1535 0
-214 -340 1535 0
-338 -1536 0
-341 -1536 0
338 341 1536 0
343 -1537 0
2 -1537 0
-343 -2 1537 0
218 -1538 0
344 -1538 0
-218 -344 1538 0
346 -1539 0
2 -1539 0
-346 -2 1539 0
222 -1540 0
347 -1540 0
-222 -347 1540 0
-345 -1541 0
-348 -1541 0
345 348 1541 0
-342 -1542 0
-349 -1542 0
342 349 1542 0
-335 -1543 0
1542 -1543 0
335 -1542 1543 0
-320 -1544 0
-351 -1544 0
320 351 1544 0
-289 -1545 0
1544 -1545 0
289 -1544 1545 0
1 -1546 0
226 -1546 0
-1 -226 1546 0
28 -1547 0
354 -1547 0
-28 -354 1547 0
1 -1548 0
229 -1548 0
-1 -229 1548 0
36 -1549 0
356 -1549 0
-36 -356 1549 0
-355 -1550 0
-357 -1550 0
355 357 1550 0
1 -1551 0
233 -1551 0
-1 -233 1551 0
44 -1552 0
359 -1552 0
-44 -359 1552 0
1 -1553 0
236 -1553 0
-1 -236 1553 0
52 -1554 0
361 -1554 0
-52 -361 1554 0
-360 -1555 0
-362 -1555 0
360 362 1555 0
-358 -1556 0
-363 -1556 0
358 363 1556 0
1 -1557 0
241 -1557 0
-1 -241 1557 0
60 -1558 0
365 -1558 0
-60 -365 1558 0
1 -1559 0
244 -1559 0
-1 -244 1559 0
64 -1560 0
367 -1560 0
-64 -367 1560 0
-366 -1561 0
-368 -1561 0
366 368 1561 0
1 -1562 0
248 -1562 0
-1 -248 1562 0
68 -1563 0
370 -1563 0
-68 -370 1563 0
1 -1564 0
251 -1564 0
-1 -251 1564 0
72 -1565 0
372 -1565 0
-72 -372 1565 0
-371 -1566 0
-373 -1566 0
371 373 1566 0
-369 -1567 0
-374 -1567 0
369 374 1567 0
-364 -1568 0
1567 -1568 0
364 -1567 1568 0
1 -1569 0
257 -1569 0
-1 -257 1569 0
80 -1570 0
377 -1570 0
-80 -377 1570 0
260 -1571 0
1 -1571 0
-260 -1 1571 0
84 -1572 0
379 -1572 0
-84 -379 1572 0
-378 -1573 0
-380 -1573 0
378 380 1573 0
264 -1574 0
1 -1574 0
-264 -1 1574 0
88 -1575 0
382 -1575 0
-88 -382 1575 0
267 -1576 0
1 -1576 0
-267 -1 1576 0
92 -1577 0
384 -1577 0
-92 -384 1577 0
-383 -1578 0
-385 -1578 0
383 385 1578 0
-381 -1579 0
-386 -1579 0
381 386 1579 0
272 -1580 0
1 -1580 0
-272 -1 1580 0
100 -1581 0
388 -1581 0
-100 -388 1581 0
276 -1582 0
1 -1582 0
-276 -1 1582 0
104 -1583 0
390 -1583 0
-104 -390 1583 0
-389 -1584 0
-391 -1584 0
389 391 1584 0
280 -1585 0
1 -1585 0
-280 -1 1585 0
108 -1586 0
393 -1586 0
-108 -393 1586 0
283 -1587 0
1 -1587 0
-283 -1 1587 0
112 -1588 0
395 -1588 0
-112 -395 1588 0
-394 -1589 0
-396 -1589 0
394 396 1589 0
-392 -1590 0
-397 -1590 0
392 397 1590 0
-387 -1591 0
-398 -1591 0
387 398 1591 0
-376 -1592 0
-399 -1592 0
376 399 1592 0
28 -1593 0
401 -1593 0
-28 -401 1593 0
36 -1594 0
403 -1594 0
-36 -403 1594 0
-402 -1595 0
-404 -1595 0
402 404 1595 0
44 -1596 0
406 -1596 0
-44 -406 1596 0
52 -1597 0
408 -1597 0
-52 -408 1597 0
-407 -1598 0
-409 -1598 0
407 409 1598 0
-405 -1599 0
-410 -1599 0
405 410 1599 0
60 -1600 0
412 -1600 0
-60 -412 1600 0
64 -1601 0
414 -1601 0
-64 -414 1601 0
-413 -1602 0
-415 -1602 0
413 415 1602 0
68 -1603 0
417 -1603 0
-68 -417 1603 0
72 -1604 0
419 -1604 0
-72 -419 1604 0
-418 -1605 0
-420 -1605 0
418 420 1605 0
-416 -1606 0
-421 -1606 0
416 421 1606 0
-411 -1607 0
-422 -1607 0
411 422 1607 0
80 -1608 0
424 -1608 0
-80 -424 1608 0
84 -1609 0
426 -1609 0
-84 -426 1609 0
-425 -1610 0
-427 -1610 0
425 427 1610 0
88 -1611 0
429 -1611 0
-88 -429 1611 0
92 -1612 0
431 -1612 0
-92 -431 1612 0
-430 -1613 0
-432 -1613 0
430 432 1613 0
-428 -1614 0
-433 -1614 0
428 433 1614 0
100 -1615 0
435 -1615 0
-100 -435 1615 0
104 -1616 0
437 -1616 0
-104 -437 1616 0
-436 -1617 0
-438 -1617 0
436 438 1617 0
108 -1618 0
440 -1618 0
-108 -440 1618 0
112 -1619 0
442 -1619 0
-112 -442 1619 0
-441 -1620 0
-443 -1620 0
441 443 1620 0
-439 -1621 0
-444 -1621 0
439 444 1621 0
-434 -1622 0
-445 -1622 0
434 445 1622 0
-423 -1623 0
-446 -1623 0
423 446 1623 0
-400 -1624 0
1623 -1624 0
400 -1623 1624 0
